\ENCODING=ISO-8859-1
\Problem name: ilog.cplex

Maximize
 obj: 576 x(0)#0 + 585 x(1)#1 + 831 x(2)#2 + 320 x(3)#3 + 872 x(4)#4
      + 948 x(5)#5 + 695 x(6)#6 + 836 x(7)#7 + 746 x(8)#8 + 609 x(9)#9
      + 1001 x(10)#10 + 835 x(11)#11 + 927 x(12)#12 + 560 x(13)#13
      + 1101 x(14)#14 + 879 x(15)#15 + 477 x(16)#16 + 697 x(17)#17
      + 858 x(18)#18 + 702 x(19)#19 + 447 x(20)#20 + 503 x(21)#21
      + 1071 x(22)#22 + 609 x(23)#23 + 963 x(24)#24 + 618 x(25)#25
      + 737 x(26)#26 + 809 x(27)#27 + 522 x(28)#28 + 556 x(29)#29
      + 900 x(30)#30 + 751 x(31)#31 + 825 x(32)#32 + 746 x(33)#33
      + 919 x(34)#34 + 633 x(35)#35 + 878 x(36)#36 + 670 x(37)#37
      + 771 x(38)#38 + 525 x(39)#39 + 861 x(40)#40 + 431 x(41)#41
      + 608 x(42)#42 + 946 x(43)#43 + 1187 x(44)#44 + 631 x(45)#45
      + 435 x(46)#46 + 1217 x(47)#47 + 749 x(48)#48 + 484 x(49)#49
      + 596 x(50)#50 + 788 x(51)#51 + 1052 x(52)#52 + 618 x(53)#53
      + 664 x(54)#54 + 875 x(55)#55 + 827 x(56)#56 + 331 x(57)#57
      + 467 x(58)#58 + 759 x(59)#59 + 499 x(60)#60 + 590 x(61)#61
      + 732 x(62)#62 + 819 x(63)#63 + 724 x(64)#64 + 880 x(65)#65
      + 938 x(66)#66 + 444 x(67)#67 + 717 x(68)#68 + 798 x(69)#69
      + 577 x(70)#70 + 656 x(71)#71 + 1000 x(72)#72 + 615 x(73)#73
      + 751 x(74)#74 + 897 x(75)#75 + 629 x(76)#76 + 1016 x(77)#77
      + 1097 x(78)#78 + 534 x(79)#79 + 757 x(80)#80 + 507 x(81)#81
      + 966 x(82)#82 + 881 x(83)#83 + 1026 x(84)#84 + 877 x(85)#85
      + 956 x(86)#86 + 735 x(87)#87 + 836 x(88)#88 + 674 x(89)#89
      + 1059 x(90)#90 + 742 x(91)#91 + 813 x(92)#92 + 755 x(93)#93
      + 1064 x(94)#94 + 495 x(95)#95 + 1075 x(96)#96 + 1177 x(97)#97
      + 938 x(98)#98 + 680 x(99)#99
Subject To
 c1: 181 x(0)#0 + 180 x(1)#1 + 339 x(2)#2 + 135 x(3)#3 + 913 x(4)#4
     + 517 x(5)#5 + 819 x(6)#6 + 181 x(7)#7 + 976 x(8)#8 + 488 x(9)#9
     + 77 x(10)#10 + 342 x(11)#11 + 398 x(12)#12 + 233 x(13)#13 + 893 x(14)#14
     + 156 x(15)#15 + 313 x(16)#16 + 920 x(17)#17 + 486 x(18)#18 + 583 x(19)#19
     + 4 x(20)#20 + 267 x(21)#21 + 728 x(22)#22 + 661 x(23)#23 + 447 x(24)#24
     + 9 x(25)#25 + 12 x(26)#26 + 173 x(27)#27 + 652 x(28)#28 + 323 x(29)#29
     + 761 x(30)#30 + 58 x(31)#31 + 697 x(32)#32 + 651 x(33)#33 + 702 x(34)#34
     + 600 x(35)#35 + 281 x(36)#36 + 162 x(37)#37 + 734 x(38)#38 + 208 x(39)#39
     + 450 x(40)#40 + 675 x(41)#41 + 282 x(42)#42 + 948 x(43)#43 + 884 x(44)#44
     + 72 x(45)#45 + 265 x(46)#46 + 585 x(47)#47 + 838 x(48)#48 + 536 x(49)#49
     + 752 x(50)#50 + 839 x(51)#51 + 832 x(52)#52 + 877 x(53)#53 + 90 x(54)#54
     + 746 x(55)#55 + 863 x(56)#56 + 463 x(57)#57 + 590 x(58)#58 + 525 x(59)#59
     + 253 x(60)#60 + 987 x(61)#61 + 204 x(62)#62 + 716 x(63)#63 + 653 x(64)#64
     + 513 x(65)#65 + 605 x(66)#66 + 174 x(67)#67 + 863 x(68)#68 + 672 x(69)#69
     + 532 x(70)#70 + 36 x(71)#71 + 775 x(72)#72 + 737 x(73)#73 + 104 x(74)#74
     + 605 x(75)#75 + 685 x(76)#76 + 766 x(77)#77 + 959 x(78)#78 + 725 x(79)#79
     + 917 x(80)#80 + 209 x(81)#81 + 330 x(82)#82 + 313 x(83)#83 + 533 x(84)#84
     + 444 x(85)#85 + 571 x(86)#86 + 899 x(87)#87 + 776 x(88)#88 + 228 x(89)#89
     + 967 x(90)#90 + 317 x(91)#91 + 621 x(92)#92 + 661 x(93)#93 + 259 x(94)#94
     + 775 x(95)#95 + 702 x(96)#96 + 764 x(97)#97 + 775 x(98)#98 + 458 x(99)#99
     <= 13114
 c2: 465 x(0)#0 + 182 x(1)#1 + 469 x(2)#2 + 336 x(3)#3 + 937 x(4)#4 + 91 x(5)#5
     + 593 x(6)#6 + 49 x(7)#7 + 74 x(8)#8 + 690 x(9)#9 + 918 x(10)#10
     + 439 x(11)#11 + 903 x(12)#12 + 884 x(13)#13 + 164 x(14)#14 + 756 x(15)#15
     + 115 x(16)#16 + 624 x(17)#17 + 146 x(18)#18 + 752 x(19)#19 + 177 x(20)#20
     + 889 x(21)#21 + 717 x(22)#22 + 356 x(23)#23 + 381 x(24)#24 + 697 x(25)#25
     + 975 x(26)#26 + 213 x(27)#27 + 286 x(28)#28 + 828 x(29)#29 + 70 x(30)#30
     + 890 x(31)#31 + 370 x(32)#32 + 941 x(33)#33 + 9 x(34)#34 + 5 x(35)#35
     + 168 x(36)#36 + 417 x(37)#37 + 387 x(38)#38 + 393 x(39)#39 + 259 x(40)#40
     + 101 x(41)#41 + 61 x(42)#42 + 815 x(43)#43 + 859 x(44)#44 + 768 x(45)#45
     + 21 x(46)#46 + 528 x(47)#47 + 292 x(48)#48 + 24 x(49)#49 + 465 x(50)#50
     + 161 x(51)#51 + 539 x(52)#52 + 990 x(53)#53 + 778 x(54)#54 + 290 x(55)#55
     + 556 x(56)#56 + 257 x(57)#57 + 376 x(58)#58 + 694 x(59)#59 + 933 x(60)#60
     + 467 x(61)#61 + 937 x(62)#62 + 680 x(63)#63 + 720 x(64)#64 + 309 x(65)#65
     + 288 x(66)#66 + 89 x(67)#67 + 251 x(68)#68 + 427 x(69)#69 + 487 x(70)#70
     + 51 x(71)#71 + 847 x(72)#72 + 135 x(73)#73 + 518 x(74)#74 + 861 x(75)#75
     + 170 x(76)#76 + 870 x(77)#77 + 263 x(78)#78 + 989 x(79)#79 + 173 x(80)#80
     + 61 x(81)#81 + 990 x(82)#82 + 903 x(83)#83 + 957 x(84)#84 + 874 x(85)#85
     + 980 x(86)#86 + 535 x(87)#87 + 339 x(88)#88 + 683 x(89)#89 + 230 x(90)#90
     + 104 x(91)#91 + 650 x(92)#92 + 631 x(93)#93 + 647 x(94)#94 + 178 x(95)#95
     + 827 x(96)#96 + 597 x(97)#97 + 258 x(98)#98 + 862 x(99)#99 <= 12340
 c3: 754 x(0)#0 + 560 x(1)#1 + 486 x(2)#2 + 513 x(3)#3 + 846 x(4)#4
     + 807 x(5)#5 + 927 x(6)#6 + 577 x(7)#7 + 539 x(8)#8 + 390 x(9)#9
     + 840 x(10)#10 + 643 x(11)#11 + 808 x(12)#12 + 103 x(13)#13 + 859 x(14)#14
     + 745 x(15)#15 + 8 x(16)#16 + 614 x(17)#17 + 444 x(18)#18 + 884 x(19)#19
     + 89 x(20)#20 + 199 x(21)#21 + 513 x(22)#22 + 21 x(23)#23 + 765 x(24)#24
     + 304 x(25)#25 + 370 x(26)#26 + 970 x(27)#27 + 708 x(28)#28 + 694 x(29)#29
     + 543 x(30)#30 + 283 x(31)#31 + 798 x(32)#32 + 521 x(33)#33 + 334 x(34)#34
     + 570 x(35)#35 + 433 x(36)#36 + 550 x(37)#37 + 137 x(38)#38 + 348 x(39)#39
     + 151 x(40)#40 + 96 x(41)#41 + 602 x(42)#42 + 995 x(43)#43 + 644 x(44)#44
     + 862 x(45)#45 + 182 x(46)#46 + 839 x(47)#47 + 51 x(48)#48 + 778 x(49)#49
     + 186 x(50)#50 + 432 x(51)#51 + 798 x(52)#52 + 143 x(53)#53 + 945 x(54)#54
     + 171 x(55)#55 + 623 x(56)#56 + 272 x(57)#57 + 328 x(58)#58 + 552 x(59)#59
     + 242 x(60)#60 + 368 x(61)#61 + 743 x(62)#62 + 768 x(63)#63 + 518 x(64)#64
     + 45 x(65)#65 + 112 x(66)#66 + 855 x(67)#67 + 487 x(68)#68 + 604 x(69)#69
     + 205 x(70)#70 + 549 x(71)#71 + 277 x(72)#72 + 715 x(73)#73 + 219 x(74)#74
     + 460 x(75)#75 + 530 x(76)#76 + 929 x(77)#77 + 817 x(78)#78 + 97 x(79)#79
     + 302 x(80)#80 + 502 x(81)#81 + 814 x(82)#82 + 810 x(83)#83 + 931 x(84)#84
     + 729 x(85)#85 + 453 x(86)#86 + 44 x(87)#87 + 888 x(88)#88 + 741 x(89)#89
     + 874 x(90)#90 + 650 x(91)#91 + 13 x(92)#92 + 803 x(93)#93 + 434 x(94)#94
     + 653 x(95)#95 + 371 x(96)#96 + 830 x(97)#97 + 188 x(98)#98 + 70 x(99)#99
     <= 12947
 c4: 521 x(0)#0 + 928 x(1)#1 + 929 x(2)#2 + 244 x(3)#3 + 206 x(4)#4
     + 776 x(5)#5 + 188 x(6)#6 + 918 x(7)#7 + 482 x(8)#8 + 545 x(9)#9
     + 594 x(10)#10 + 47 x(11)#11 + 922 x(12)#12 + 345 x(13)#13 + 760 x(14)#14
     + 28 x(15)#15 + 815 x(16)#16 + 590 x(17)#17 + 711 x(18)#18 + 47 x(19)#19
     + 238 x(20)#20 + 256 x(21)#21 + 721 x(22)#22 + 138 x(23)#23 + 6 x(24)#24
     + 294 x(25)#25 + 704 x(26)#26 + 730 x(27)#27 + 60 x(28)#28 + 138 x(29)#29
     + 594 x(30)#30 + 225 x(31)#31 + 678 x(32)#32 + 828 x(33)#33 + 854 x(34)#34
     + 417 x(35)#35 + 777 x(36)#36 + 535 x(37)#37 + 902 x(38)#38 + 393 x(39)#39
     + 450 x(40)#40 + 61 x(41)#41 + 554 x(42)#42 + 745 x(43)#43 + 695 x(44)#44
     + 436 x(45)#45 + 120 x(46)#46 + 862 x(47)#47 + 715 x(48)#48 + 469 x(49)#49
     + 598 x(50)#50 + 509 x(51)#51 + 908 x(52)#52 + 552 x(53)#53 + 403 x(54)#54
     + 422 x(55)#55 + 837 x(56)#56 + 18 x(57)#57 + 848 x(58)#58 + 16 x(59)#59
     + 145 x(60)#60 + 425 x(61)#61 + 418 x(62)#62 + 398 x(63)#63 + 342 x(64)#64
     + 949 x(65)#65 + 732 x(66)#66 + 277 x(67)#67 + 846 x(68)#68 + 511 x(69)#69
     + 343 x(70)#70 + 213 x(71)#71 + 788 x(72)#72 + 14 x(73)#73 + 481 x(74)#74
     + 632 x(75)#75 + 883 x(76)#76 + 166 x(77)#77 + 510 x(78)#78 + 462 x(79)#79
     + 63 x(80)#80 + 991 x(81)#81 + 737 x(82)#82 + 212 x(83)#83 + 911 x(84)#84
     + 702 x(85)#85 + 353 x(86)#86 + 984 x(87)#87 + 593 x(88)#88 + 566 x(89)#89
     + 604 x(90)#90 + 678 x(91)#91 + 131 x(92)#92 + 717 x(93)#93 + 876 x(94)#94
     + 743 x(95)#95 + 994 x(96)#96 + 662 x(97)#97 + 523 x(98)#98 + 718 x(99)#99
     <= 13149
 c5: 590 x(0)#0 + 489 x(1)#1 + 320 x(2)#2 + 11 x(3)#3 + 248 x(4)#4 + 748 x(5)#5
     + 367 x(6)#6 + 139 x(7)#7 + 73 x(8)#8 + 120 x(9)#9 + 978 x(10)#10
     + 750 x(11)#11 + 921 x(12)#12 + 660 x(13)#13 + 730 x(14)#14 + 934 x(15)#15
     + 49 x(16)#16 + 202 x(17)#17 + 291 x(18)#18 + 375 x(19)#19 + 994 x(20)#20
     + 876 x(21)#21 + 986 x(22)#22 + 340 x(23)#23 + 914 x(24)#24 + 996 x(25)#25
     + 544 x(26)#26 + 252 x(27)#27 + 818 x(28)#28 + 373 x(29)#29 + 699 x(30)#30
     + 558 x(31)#31 + 200 x(32)#32 + 517 x(33)#33 + 537 x(34)#34 + 257 x(35)#35
     + 285 x(36)#36 + 559 x(37)#37 + 716 x(38)#38 + 850 x(39)#39 + 630 x(40)#40
     + 218 x(41)#41 + 860 x(42)#42 + 484 x(43)#43 + 827 x(44)#44 + 628 x(45)#45
     + 615 x(46)#46 + 834 x(47)#47 + 906 x(48)#48 + 116 x(49)#49 + 833 x(50)#50
     + 220 x(51)#51 + 929 x(52)#52 + 530 x(53)#53 + 220 x(54)#54 + 850 x(55)#55
     + 333 x(56)#56 + 46 x(57)#57 + 53 x(58)#58 + 219 x(59)#59 + 397 x(60)#60
     + 443 x(61)#61 + 940 x(62)#62 + 836 x(63)#63 + 653 x(64)#64 + 370 x(65)#65
     + 754 x(66)#66 + 729 x(67)#67 + 220 x(68)#68 + 86 x(69)#69 + 472 x(70)#70
     + 341 x(71)#71 + 708 x(72)#72 + 572 x(73)#73 + 388 x(74)#74 + 498 x(75)#75
     + 181 x(76)#76 + 158 x(77)#77 + 482 x(78)#78 + 296 x(79)#79 + 385 x(80)#80
     + 235 x(81)#81 + 187 x(82)#82 + 213 x(83)#83 + 917 x(84)#84 + 992 x(85)#85
     + 968 x(86)#86 + 976 x(87)#87 + 852 x(88)#88 + 613 x(89)#89 + 701 x(90)#90
     + 14 x(91)#91 + 715 x(92)#92 + 344 x(93)#93 + 902 x(94)#94 + 48 x(95)#95
     + 244 x(96)#96 + 625 x(97)#97 + 627 x(98)#98 + 275 x(99)#99 <= 12994
Bounds
 0 <= x(0)#0 <= 1
 0 <= x(1)#1 <= 1
 0 <= x(2)#2 <= 1
 0 <= x(3)#3 <= 1
 0 <= x(4)#4 <= 1
 0 <= x(5)#5 <= 1
 0 <= x(6)#6 <= 1
 0 <= x(7)#7 <= 1
 0 <= x(8)#8 <= 1
 0 <= x(9)#9 <= 1
 0 <= x(10)#10 <= 1
 0 <= x(11)#11 <= 1
 0 <= x(12)#12 <= 1
 0 <= x(13)#13 <= 1
 0 <= x(14)#14 <= 1
 0 <= x(15)#15 <= 1
 0 <= x(16)#16 <= 1
 0 <= x(17)#17 <= 1
 0 <= x(18)#18 <= 1
 0 <= x(19)#19 <= 1
 0 <= x(20)#20 <= 1
 0 <= x(21)#21 <= 1
 0 <= x(22)#22 <= 1
 0 <= x(23)#23 <= 1
 0 <= x(24)#24 <= 1
 0 <= x(25)#25 <= 1
 0 <= x(26)#26 <= 1
 0 <= x(27)#27 <= 1
 0 <= x(28)#28 <= 1
 0 <= x(29)#29 <= 1
 0 <= x(30)#30 <= 1
 0 <= x(31)#31 <= 1
 0 <= x(32)#32 <= 1
 0 <= x(33)#33 <= 1
 0 <= x(34)#34 <= 1
 0 <= x(35)#35 <= 1
 0 <= x(36)#36 <= 1
 0 <= x(37)#37 <= 1
 0 <= x(38)#38 <= 1
 0 <= x(39)#39 <= 1
 0 <= x(40)#40 <= 1
 0 <= x(41)#41 <= 1
 0 <= x(42)#42 <= 1
 0 <= x(43)#43 <= 1
 0 <= x(44)#44 <= 1
 0 <= x(45)#45 <= 1
 0 <= x(46)#46 <= 1
 0 <= x(47)#47 <= 1
 0 <= x(48)#48 <= 1
 0 <= x(49)#49 <= 1
 0 <= x(50)#50 <= 1
 0 <= x(51)#51 <= 1
 0 <= x(52)#52 <= 1
 0 <= x(53)#53 <= 1
 0 <= x(54)#54 <= 1
 0 <= x(55)#55 <= 1
 0 <= x(56)#56 <= 1
 0 <= x(57)#57 <= 1
 0 <= x(58)#58 <= 1
 0 <= x(59)#59 <= 1
 0 <= x(60)#60 <= 1
 0 <= x(61)#61 <= 1
 0 <= x(62)#62 <= 1
 0 <= x(63)#63 <= 1
 0 <= x(64)#64 <= 1
 0 <= x(65)#65 <= 1
 0 <= x(66)#66 <= 1
 0 <= x(67)#67 <= 1
 0 <= x(68)#68 <= 1
 0 <= x(69)#69 <= 1
 0 <= x(70)#70 <= 1
 0 <= x(71)#71 <= 1
 0 <= x(72)#72 <= 1
 0 <= x(73)#73 <= 1
 0 <= x(74)#74 <= 1
 0 <= x(75)#75 <= 1
 0 <= x(76)#76 <= 1
 0 <= x(77)#77 <= 1
 0 <= x(78)#78 <= 1
 0 <= x(79)#79 <= 1
 0 <= x(80)#80 <= 1
 0 <= x(81)#81 <= 1
 0 <= x(82)#82 <= 1
 0 <= x(83)#83 <= 1
 0 <= x(84)#84 <= 1
 0 <= x(85)#85 <= 1
 0 <= x(86)#86 <= 1
 0 <= x(87)#87 <= 1
 0 <= x(88)#88 <= 1
 0 <= x(89)#89 <= 1
 0 <= x(90)#90 <= 1
 0 <= x(91)#91 <= 1
 0 <= x(92)#92 <= 1
 0 <= x(93)#93 <= 1
 0 <= x(94)#94 <= 1
 0 <= x(95)#95 <= 1
 0 <= x(96)#96 <= 1
 0 <= x(97)#97 <= 1
 0 <= x(98)#98 <= 1
 0 <= x(99)#99 <= 1
Generals
 x(0)#0  x(1)#1  x(2)#2  x(3)#3  x(4)#4  x(5)#5  x(6)#6  x(7)#7  x(8)#8 
 x(9)#9  x(10)#10  x(11)#11  x(12)#12  x(13)#13  x(14)#14  x(15)#15  x(16)#16 
 x(17)#17  x(18)#18  x(19)#19  x(20)#20  x(21)#21  x(22)#22  x(23)#23 
 x(24)#24  x(25)#25  x(26)#26  x(27)#27  x(28)#28  x(29)#29  x(30)#30 
 x(31)#31  x(32)#32  x(33)#33  x(34)#34  x(35)#35  x(36)#36  x(37)#37 
 x(38)#38  x(39)#39  x(40)#40  x(41)#41  x(42)#42  x(43)#43  x(44)#44 
 x(45)#45  x(46)#46  x(47)#47  x(48)#48  x(49)#49  x(50)#50  x(51)#51 
 x(52)#52  x(53)#53  x(54)#54  x(55)#55  x(56)#56  x(57)#57  x(58)#58 
 x(59)#59  x(60)#60  x(61)#61  x(62)#62  x(63)#63  x(64)#64  x(65)#65 
 x(66)#66  x(67)#67  x(68)#68  x(69)#69  x(70)#70  x(71)#71  x(72)#72 
 x(73)#73  x(74)#74  x(75)#75  x(76)#76  x(77)#77  x(78)#78  x(79)#79 
 x(80)#80  x(81)#81  x(82)#82  x(83)#83  x(84)#84  x(85)#85  x(86)#86 
 x(87)#87  x(88)#88  x(89)#89  x(90)#90  x(91)#91  x(92)#92  x(93)#93 
 x(94)#94  x(95)#95  x(96)#96  x(97)#97  x(98)#98  x(99)#99 
End
